(declare-const X String)
; body=\x2521\x2521\x2521Optix\s+Host\x3a
(assert (str.in_re X (re.++ (str.to_re "body=%21%21%21Optix\u{13}") (re.+ (re.union (str.to_re " ") (str.to_re "\u{9}") (str.to_re "\u{a}") (str.to_re "\u{c}") (str.to_re "\u{d}"))) (str.to_re "Host:\u{a}"))))
; EFError.*Host\x3A\swww\x2emalware-stopper\x2ecom
(assert (not (str.in_re X (re.++ (str.to_re "EFError") (re.* re.allchar) (str.to_re "Host:") (re.union (str.to_re " ") (str.to_re "\u{9}") (str.to_re "\u{a}") (str.to_re "\u{c}") (str.to_re "\u{d}")) (str.to_re "www.malware-stopper.com\u{a}")))))
; Porta\s+SSKC\s+\.cfgmPOPrtCUSTOMPalToolbarUser-Agent\x3A
(assert (str.in_re X (re.++ (str.to_re "Porta") (re.+ (re.union (str.to_re " ") (str.to_re "\u{9}") (str.to_re "\u{a}") (str.to_re "\u{c}") (str.to_re "\u{d}"))) (str.to_re "SSKC") (re.+ (re.union (str.to_re " ") (str.to_re "\u{9}") (str.to_re "\u{a}") (str.to_re "\u{c}") (str.to_re "\u{d}"))) (str.to_re ".cfgmPOPrtCUSTOMPalToolbarUser-Agent:\u{a}"))))
(check-sat)
